c description: There is a graph of 5 vertices with a 2-clique and a 10-coloring
c generator: CNFgen (0.9.0)
c copyright: (C) 2012-2020 Massimo Lauria <massimo.lauria@uniroma1.it>
c url: https://massimolauria.net/cnfgen
c
p cnf 70 377
-11 -12 0
-11 -13 0
-11 -14 0
-11 -15 0
-12 -13 0
-12 -14 0
-12 -15 0
-13 -14 0
-13 -15 0
-14 -15 0
11 12 13 14 15 0
-16 -17 0
-16 -18 0
-16 -19 0
-16 -20 0
-17 -18 0
-17 -19 0
-17 -20 0
-18 -19 0
-18 -20 0
-19 -20 0
16 17 18 19 20 0
-11 -16 0
-12 -17 0
-13 -18 0
-14 -19 0
-15 -20 0
1 -11 -17 0
1 -16 -12 0
2 -11 -18 0
2 -16 -13 0
3 -11 -19 0
3 -16 -14 0
4 -11 -20 0
4 -16 -15 0
5 -12 -18 0
5 -17 -13 0
6 -12 -19 0
6 -17 -14 0
7 -12 -20 0
7 -17 -15 0
8 -13 -19 0
8 -18 -14 0
9 -13 -20 0
9 -18 -15 0
10 -14 -20 0
10 -19 -15 0
-21 -22 0
-21 -23 0
-21 -24 0
-21 -25 0
-21 -26 0
-21 -27 0
-21 -28 0
-21 -29 0
-21 -30 0
-22 -23 0
-22 -24 0
-22 -25 0
-22 -26 0
-22 -27 0
-22 -28 0
-22 -29 0
-22 -30 0
-23 -24 0
-23 -25 0
-23 -26 0
-23 -27 0
-23 -28 0
-23 -29 0
-23 -30 0
-24 -25 0
-24 -26 0
-24 -27 0
-24 -28 0
-24 -29 0
-24 -30 0
-25 -26 0
-25 -27 0
-25 -28 0
-25 -29 0
-25 -30 0
-26 -27 0
-26 -28 0
-26 -29 0
-26 -30 0
-27 -28 0
-27 -29 0
-27 -30 0
-28 -29 0
-28 -30 0
-29 -30 0
21 22 23 24 25 26 27 28 29 30 0
-31 -32 0
-31 -33 0
-31 -34 0
-31 -35 0
-31 -36 0
-31 -37 0
-31 -38 0
-31 -39 0
-31 -40 0
-32 -33 0
-32 -34 0
-32 -35 0
-32 -36 0
-32 -37 0
-32 -38 0
-32 -39 0
-32 -40 0
-33 -34 0
-33 -35 0
-33 -36 0
-33 -37 0
-33 -38 0
-33 -39 0
-33 -40 0
-34 -35 0
-34 -36 0
-34 -37 0
-34 -38 0
-34 -39 0
-34 -40 0
-35 -36 0
-35 -37 0
-35 -38 0
-35 -39 0
-35 -40 0
-36 -37 0
-36 -38 0
-36 -39 0
-36 -40 0
-37 -38 0
-37 -39 0
-37 -40 0
-38 -39 0
-38 -40 0
-39 -40 0
31 32 33 34 35 36 37 38 39 40 0
-41 -42 0
-41 -43 0
-41 -44 0
-41 -45 0
-41 -46 0
-41 -47 0
-41 -48 0
-41 -49 0
-41 -50 0
-42 -43 0
-42 -44 0
-42 -45 0
-42 -46 0
-42 -47 0
-42 -48 0
-42 -49 0
-42 -50 0
-43 -44 0
-43 -45 0
-43 -46 0
-43 -47 0
-43 -48 0
-43 -49 0
-43 -50 0
-44 -45 0
-44 -46 0
-44 -47 0
-44 -48 0
-44 -49 0
-44 -50 0
-45 -46 0
-45 -47 0
-45 -48 0
-45 -49 0
-45 -50 0
-46 -47 0
-46 -48 0
-46 -49 0
-46 -50 0
-47 -48 0
-47 -49 0
-47 -50 0
-48 -49 0
-48 -50 0
-49 -50 0
41 42 43 44 45 46 47 48 49 50 0
-51 -52 0
-51 -53 0
-51 -54 0
-51 -55 0
-51 -56 0
-51 -57 0
-51 -58 0
-51 -59 0
-51 -60 0
-52 -53 0
-52 -54 0
-52 -55 0
-52 -56 0
-52 -57 0
-52 -58 0
-52 -59 0
-52 -60 0
-53 -54 0
-53 -55 0
-53 -56 0
-53 -57 0
-53 -58 0
-53 -59 0
-53 -60 0
-54 -55 0
-54 -56 0
-54 -57 0
-54 -58 0
-54 -59 0
-54 -60 0
-55 -56 0
-55 -57 0
-55 -58 0
-55 -59 0
-55 -60 0
-56 -57 0
-56 -58 0
-56 -59 0
-56 -60 0
-57 -58 0
-57 -59 0
-57 -60 0
-58 -59 0
-58 -60 0
-59 -60 0
51 52 53 54 55 56 57 58 59 60 0
-61 -62 0
-61 -63 0
-61 -64 0
-61 -65 0
-61 -66 0
-61 -67 0
-61 -68 0
-61 -69 0
-61 -70 0
-62 -63 0
-62 -64 0
-62 -65 0
-62 -66 0
-62 -67 0
-62 -68 0
-62 -69 0
-62 -70 0
-63 -64 0
-63 -65 0
-63 -66 0
-63 -67 0
-63 -68 0
-63 -69 0
-63 -70 0
-64 -65 0
-64 -66 0
-64 -67 0
-64 -68 0
-64 -69 0
-64 -70 0
-65 -66 0
-65 -67 0
-65 -68 0
-65 -69 0
-65 -70 0
-66 -67 0
-66 -68 0
-66 -69 0
-66 -70 0
-67 -68 0
-67 -69 0
-67 -70 0
-68 -69 0
-68 -70 0
-69 -70 0
61 62 63 64 65 66 67 68 69 70 0
-1 -21 -31 0
-1 -22 -32 0
-1 -23 -33 0
-1 -24 -34 0
-1 -25 -35 0
-1 -26 -36 0
-1 -27 -37 0
-1 -28 -38 0
-1 -29 -39 0
-1 -30 -40 0
-2 -21 -41 0
-2 -22 -42 0
-2 -23 -43 0
-2 -24 -44 0
-2 -25 -45 0
-2 -26 -46 0
-2 -27 -47 0
-2 -28 -48 0
-2 -29 -49 0
-2 -30 -50 0
-3 -21 -51 0
-3 -22 -52 0
-3 -23 -53 0
-3 -24 -54 0
-3 -25 -55 0
-3 -26 -56 0
-3 -27 -57 0
-3 -28 -58 0
-3 -29 -59 0
-3 -30 -60 0
-4 -21 -61 0
-4 -22 -62 0
-4 -23 -63 0
-4 -24 -64 0
-4 -25 -65 0
-4 -26 -66 0
-4 -27 -67 0
-4 -28 -68 0
-4 -29 -69 0
-4 -30 -70 0
-5 -31 -41 0
-5 -32 -42 0
-5 -33 -43 0
-5 -34 -44 0
-5 -35 -45 0
-5 -36 -46 0
-5 -37 -47 0
-5 -38 -48 0
-5 -39 -49 0
-5 -40 -50 0
-6 -31 -51 0
-6 -32 -52 0
-6 -33 -53 0
-6 -34 -54 0
-6 -35 -55 0
-6 -36 -56 0
-6 -37 -57 0
-6 -38 -58 0
-6 -39 -59 0
-6 -40 -60 0
-7 -31 -61 0
-7 -32 -62 0
-7 -33 -63 0
-7 -34 -64 0
-7 -35 -65 0
-7 -36 -66 0
-7 -37 -67 0
-7 -38 -68 0
-7 -39 -69 0
-7 -40 -70 0
-8 -41 -51 0
-8 -42 -52 0
-8 -43 -53 0
-8 -44 -54 0
-8 -45 -55 0
-8 -46 -56 0
-8 -47 -57 0
-8 -48 -58 0
-8 -49 -59 0
-8 -50 -60 0
-9 -41 -61 0
-9 -42 -62 0
-9 -43 -63 0
-9 -44 -64 0
-9 -45 -65 0
-9 -46 -66 0
-9 -47 -67 0
-9 -48 -68 0
-9 -49 -69 0
-9 -50 -70 0
-10 -51 -61 0
-10 -52 -62 0
-10 -53 -63 0
-10 -54 -64 0
-10 -55 -65 0
-10 -56 -66 0
-10 -57 -67 0
-10 -58 -68 0
-10 -59 -69 0
-10 -60 -70 0